500
50 50
1 40 692
2 40 201
3 40 103
4 40 414
5 40 379
6 40 873
7 40 685
8 40 519
9 40 216
10 40 600
11 40 992
12 40 932
13 39 908
14 39 880
15 39 54
16 39 863
17 39 24
18 39 92
19 39 966
20 39 817
21 39 667
22 39 835
23 39 327
24 38 859
25 38 408
26 38 722
27 38 28
28 38 95
29 38 613
30 38 122
31 38 759
32 38 926
33 38 720
34 38 895
35 38 178
36 38 791
37 38 506
38 37 302
39 37 318
40 37 530
41 37 615
42 37 750
43 37 899
44 37 731
45 37 125
46 37 547
47 37 421
48 37 415
49 37 776
50 37 893
51 37 559
52 37 158
53 37 153
54 37 171
55 37 919
56 36 911
57 36 989
58 36 579
59 36 505
60 36 677
61 36 34
62 36 205
63 36 994
64 36 467
65 36 89
66 36 419
67 36 342
68 36 438
69 35 641
70 35 278
71 35 487
72 35 270
73 35 397
74 35 952
75 35 789
76 35 376
77 35 446
78 35 497
79 35 727
80 35 925
81 34 308
82 34 26
83 34 600
84 34 414
85 34 615
86 34 333
87 34 667
88 34 623
89 34 860
90 34 650
91 34 493
92 34 74
93 34 808
94 34 95
95 34 861
96 33 349
97 33 640
98 33 629
99 33 148
100 33 944
101 33 625
102 33 987
103 33 632
104 33 526
105 33 356
106 33 399
107 33 862
108 33 775
109 33 782
110 33 143
111 33 500
112 33 222
113 33 291
114 32 510
115 32 930
116 32 581
117 32 815
118 32 194
119 32 164
120 32 780
121 32 96
122 32 864
123 32 706
124 32 48
125 32 403
126 32 384
127 32 705
128 32 361
129 32 899
130 32 20
131 31 512
132 31 641
133 31 453
134 31 763
135 31 229
136 31 889
137 31 674
138 31 303
139 31 705
140 31 325
141 31 163
142 31 824
143 31 664
144 31 923
145 31 179
146 31 770
147 31 443
148 31 573
149 31 683
150 30 342
151 30 519
152 30 905
153 30 360
154 30 511
155 30 564
156 30 211
157 30 995
158 30 882
159 30 138
160 30 573
161 30 832
162 30 948
163 30 112
164 30 348
165 29 516
166 29 882
167 29 588
168 29 860
169 29 764
170 29 899
171 29 276
172 29 60
173 29 374
174 29 847
175 29 586
176 29 461
177 29 881
178 29 821
179 29 26
180 29 749
181 29 256
182 29 626
183 29 489
184 29 282
185 29 108
186 28 393
187 28 794
188 28 157
189 28 924
190 28 468
191 28 594
192 28 631
193 28 503
194 28 945
195 28 893
196 28 628
197 28 257
198 28 462
199 28 160
200 28 762
201 28 445
202 27 28
203 27 141
204 27 888
205 27 435
206 27 259
207 27 681
208 27 137
209 27 236
210 27 246
211 27 421
212 27 607
213 27 279
214 26 393
215 26 869
216 26 251
217 26 350
218 26 164
219 26 326
220 26 652
221 26 543
222 26 471
223 25 209
224 25 542
225 25 604
226 25 68
227 25 152
228 25 5
229 25 322
230 25 781
231 25 738
232 25 645
233 25 135
234 25 365
235 25 28
236 25 266
237 25 874
238 25 825
239 25 731
240 24 587
241 24 918
242 24 293
243 24 59
244 24 894
245 24 145
246 24 229
247 24 122
248 24 223
249 24 894
250 24 867
251 24 230
252 24 677
253 24 735
254 24 988
255 24 302
256 24 970
257 23 878
258 23 189
259 23 378
260 23 580
261 23 198
262 23 821
263 23 865
264 23 726
265 23 559
266 23 523
267 23 256
268 23 909
269 22 275
270 22 45
271 22 744
272 22 613
273 22 309
274 22 588
275 22 888
276 22 900
277 22 129
278 22 191
279 22 763
280 22 943
281 22 523
282 22 735
283 21 913
284 21 381
285 21 221
286 21 828
287 21 680
288 21 727
289 21 225
290 21 582
291 21 536
292 21 956
293 21 730
294 21 390
295 21 732
296 21 236
297 20 864
298 20 185
299 20 891
300 20 239
301 20 954
302 20 129
303 20 566
304 20 615
305 20 181
306 20 828
307 20 510
308 20 489
309 20 511
310 20 675
311 20 706
312 19 722
313 19 484
314 19 719
315 19 865
316 19 687
317 19 519
318 19 816
319 19 109
320 19 856
321 19 760
322 19 754
323 19 375
324 19 330
325 19 753
326 18 423
327 18 738
328 18 461
329 18 137
330 18 222
331 18 655
332 18 832
333 18 545
334 18 28
335 18 919
336 18 697
337 18 375
338 18 237
339 17 180
340 17 967
341 17 791
342 17 911
343 17 953
344 17 783
345 17 513
346 17 270
347 16 89
348 16 794
349 16 868
350 16 409
351 16 191
352 16 768
353 16 541
354 16 17
355 16 263
356 15 464
357 15 421
358 15 735
359 15 953
360 15 852
361 15 777
362 15 855
363 15 221
364 15 309
365 15 390
366 15 375
367 15 119
368 15 890
369 15 695
370 15 801
371 14 244
372 14 204
373 14 130
374 14 487
375 14 476
376 14 311
377 14 190
378 14 295
379 14 925
380 14 205
381 14 222
382 14 753
383 13 532
384 13 784
385 13 482
386 13 752
387 13 606
388 13 530
389 13 51
390 13 62
391 13 634
392 13 171
393 12 362
394 12 866
395 12 35
396 12 72
397 12 751
398 12 105
399 12 703
400 12 443
401 12 625
402 12 735
403 12 644
404 12 742
405 12 706
406 12 151
407 11 242
408 11 865
409 11 288
410 11 28
411 11 454
412 11 17
413 11 539
414 11 132
415 11 672
416 11 514
417 11 890
418 11 980
419 11 847
420 10 305
421 10 49
422 10 225
423 10 42
424 10 186
425 10 607
426 10 406
427 10 927
428 10 369
429 10 117
430 10 372
431 10 106
432 10 52
433 9 44
434 9 622
435 9 509
436 9 920
437 9 786
438 9 537
439 9 779
440 9 775
441 9 492
442 9 971
443 9 922
444 9 200
445 8 937
446 8 114
447 8 510
448 8 185
449 8 957
450 8 684
451 8 541
452 8 475
453 8 95
454 8 624
455 8 461
456 8 794
457 8 436
458 8 335
459 8 173
460 8 196
461 7 543
462 7 616
463 7 493
464 7 308
465 7 849
466 7 496
467 7 532
468 7 142
469 7 211
470 7 816
471 7 925
472 7 894
473 7 100
474 7 3
475 7 58
476 6 14
477 6 366
478 6 416
479 6 281
480 6 811
481 6 131
482 6 999
483 6 476
484 6 455
485 6 388
486 6 28
487 6 788
488 6 896
489 6 890
490 5 763
491 5 830
492 5 810
493 5 820
494 5 390
495 5 715
496 5 477
497 5 24
498 5 623
499 5 578
500 5 180
